Translating instance to solver...

Set parameter TimeLimit to value 28800
Gurobi Optimizer version 11.0.2 build v11.0.2rc0 (linux64 - "Ubuntu 22.04.4 LTS")

CPU model: Intel(R) Xeon(R) Gold 5120 CPU @ 2.20GHz, instruction set [SSE2|AVX|AVX2|AVX512]
Thread count: 28 physical cores, 56 logical processors, using up to 28 threads

Academic license 2463511 - for non-commercial use only - registered to lu___@cefet-rj.br
Optimize a model with 145385 rows, 68063 columns and 326945 nonzeros
Model fingerprint: 0xec9d2a4b
Variable types: 1 continuous, 68062 integer (67980 binary)
Coefficient statistics:
  Matrix range     [1e+00, 1e+05]
  Objective range  [3e-01, 8e-01]
  Bounds range     [1e+00, 8e+01]
  RHS range        [1e+00, 8e+01]
Presolve removed 123619 rows and 58773 columns
Presolve time: 3.33s
Presolved: 21766 rows, 9290 columns, 64998 nonzeros
Variable types: 0 continuous, 9290 integer (9209 binary)

Root relaxation: objective 1.223564e+00, 1605 iterations, 0.13 seconds (0.14 work units)

    Nodes    |    Current Node    |     Objective Bounds      |     Work
 Expl Unexpl |  Obj  Depth IntInf | Incumbent    BestBd   Gap | It/Node Time

     0     0    1.22356    0   33          -    1.22356      -     -    4s
H    0     0                       2.8794550    1.22356  57.5%     -    5s
     0     0    1.22356    0   82    2.87946    1.22356  57.5%     -    5s
H    0     0                       1.6735640    1.22356  26.9%     -    7s
     0     0    1.22356    0   61    1.67356    1.22356  26.9%     -    7s
     0     0    1.22356    0   67    1.67356    1.22356  26.9%     -    7s
     0     0    1.22356    0   43    1.67356    1.22356  26.9%     -    7s
     0     0    1.22356    0   47    1.67356    1.22356  26.9%     -    7s
     0     0    1.22356    0   46    1.67356    1.22356  26.9%     -    7s
     0     0    1.22356    0   34    1.67356    1.22356  26.9%     -    7s
     0     0    1.22356    0   47    1.67356    1.22356  26.9%     -    7s
     0     0    1.22356    0   45    1.67356    1.22356  26.9%     -    7s
     0     0    1.22356    0   49    1.67356    1.22356  26.9%     -    8s
     0     0    1.22356    0   24    1.67356    1.22356  26.9%     -    8s
     0     0    1.22356    0   57    1.67356    1.22356  26.9%     -    8s
     0     0    1.22356    0   24    1.67356    1.22356  26.9%     -    8s
     0     0    1.22356    0   37    1.67356    1.22356  26.9%     -    8s
     0     0    1.22356    0   28    1.67356    1.22356  26.9%     -    8s
     0     0    1.22356    0   28    1.67356    1.22356  26.9%     -    8s
     0     2    1.22356    0   28    1.67356    1.22356  26.9%     -    8s
    87    80    1.22356    7   58    1.67356    1.22356  26.9%   120   10s
  4557  1912    1.52946   22   41    1.67356    1.22356  26.9%  40.6   15s
  4712  1950    1.22356   23   32    1.67356    1.22356  26.9%  49.4   21s
  5580  1993    1.52946   40   52    1.67356    1.22356  26.9%  64.9   25s
  8294  1727    1.22356   44   30    1.67356    1.22356  26.9%  74.3   30s
 10321  1552    1.52946   36   68    1.67356    1.22356  26.9%  75.3   35s
 13229  1849 infeasible   37         1.67356    1.22356  26.9%  76.9   40s
 18967  3264    1.22356   43   66    1.67356    1.22356  26.9%  79.6   45s
 26559  4771    1.52946   53   27    1.67356    1.22356  26.9%  78.9   50s
 27557  4815    1.22356   34   62    1.67356    1.22356  26.9%  80.2   55s
 27641  4825    1.22356   36   97    1.67356    1.22356  26.9%  80.2   60s
 29612  4831    1.32553   72   35    1.67356    1.22356  26.9%  81.8   66s
 32764  4885    1.31915   64   76    1.67356    1.22356  26.9%  83.3   70s
 38553  4150    1.30035   49  118    1.67356    1.22356  26.9%  83.9   77s
 41557  4049 infeasible   62         1.67356    1.22356  26.9%  83.9   82s
 45880  5355 infeasible   62         1.67356    1.22356  26.9%  83.1   85s
 50609  6234    1.52946   61   27    1.67356    1.22356  26.9%  83.0   90s
 58453  7975 infeasible   59         1.67356    1.22356  26.9%  82.0   95s
 62382  8797 infeasible   50         1.67356    1.22356  26.9%  81.8  100s
 70191  7639 infeasible   65         1.67356    1.52945  8.61%  82.0  106s
 76699  6597 infeasible   83         1.67356    1.52946  8.61%  82.4  110s
 83260  5585    1.52946   68   65    1.67356    1.52946  8.61%  83.2  115s
 90478  4274 infeasible   44         1.67356    1.52946  8.61%  84.0  120s
 97102  2102 infeasible   65         1.67356    1.52946  8.61%  85.5  126s
 105213   115 infeasible   81         1.67356    1.52946  8.61%  87.2  132s

Cutting planes:
  Learned: 42
  Gomory: 2
  Implied bound: 4
  Projected implied bound: 2
  MIR: 3
  Flow cover: 10
  Zero half: 8
  RLT: 27
  Relax-and-lift: 2
  BQP: 1

Explored 108556 nodes (9557959 simplex iterations) in 133.80 seconds (114.63 work units)
Thread count was 28 (of 56 available processors)

Solution count 2: 1.67356 2.87946 

Optimal solution found (tolerance 1.00e-04)
Best objective 1.673564000000e+00, best bound 1.673564000000e+00, gap 0.0000%

Solver Wallclock Time (for this epsilon): 133.8068289756775 s
Python wallclock Time (for this epsilon): 144.60054898262024 s


Total Elapsed Time (since program call): 1768.9642362594604 s

Results:

I = 1.6735639999999998 mA
C = 52.0 points
C ~= 20.8 km^2

Minimum Epsilon for this instance = 10
Maximum Epsilon for this instance = 100

Current Epsilon = 30


Preprocessing Time (for this epsilon): 0.013067007064819336 s


Updated solution vectors:
sol_I = [-1.223564,-1.223564,-1.6735639999999998]
sol_C = [10.0,20.0,52.0]
sol_eps = [10,20,30]
sol_gap = [0.0,0.0,0.0]
